p cnf 12 24
12 -11 -9 0
12 -7 2 0
12 -4 3 0
11 10 -6 0
-11 9 -5 0
-11 8 -5 0
11 8 -4 0
11 -8 3 0
11 6 -4 0
11 4 -3 0
11 -4 2 0
-11 4 -1 0
11 -3 -1 0
10 9 1 0
10 -7 1 0
10 -6 5 0
-10 6 -4 0
10 6 -1 0
10 3 -1 0
-9 -8 -2 0
-9 -6 1 0
9 -3 -1 0
-6 -5 1 0
-6 -4 -2 0
